(set-info :smt-lib-version 2.5)
(set-logic ALL)
(declare-const BAV1 Bool)
(declare-const GEN8 String)
(declare-const GEN7 String)
(declare-const GEN6 Int)
(declare-const GEN5 Int)
(declare-const GEN4 String)
(declare-const GEN3 String)
(declare-const GEN2 Int)
(declare-const GEN1 Int)
(declare-datatypes () ((T (TC (TCb String)))))
(declare-fun root5 () String)
(declare-fun root6 () T)
(assert (and (str.in.re root5 ((_ re.loop GEN1 GEN2) (re.range GEN3 "9"))) (str.in.re (TCb root6) ((_ re.loop GEN5 GEN6) (re.range GEN7 GEN8)))))
(assert (= BAV1 (and (str.in.re root5 ((_ re.loop GEN1 GEN2) (re.range GEN3 "9"))) (str.in.re (TCb root6) ((_ re.loop GEN5 GEN6) (re.range GEN7 GEN8))))))
(check-sat)
(get-model)